%nprocshared=4
%chk=C:\Users\hirak\Downloads\day-7\AcyclovirV1.chk
# opt freq=(raman,vcd) b3lyp/6-31g(d,p) geom=connectivity gfinput pop=full

Untitled Document-1

0 2
 C                 -3.56213818   -0.33852263    0.29247424
 C                 -3.77345630   -1.65190174   -0.04938559
 C                 -2.57909873   -2.53977121   -0.41020294
 C                 -1.22588941   -1.88518479   -0.23818960
 C                 -1.11498216   -0.61214450    0.11271531
 N                 -2.24187438    0.34320271    0.11089387
 N                  0.11020084   -2.44598363   -0.41017363
 C                  0.97326254   -1.51399089   -0.13273577
 N                  0.28699701   -0.34143975    0.46767913
 O                 -2.71215293   -3.72755834   -0.80393999
 C                  0.78250459    0.94847810   -0.03380285
 O                  2.16252299    1.09557745    0.31088685
 C                  2.64454738    2.35039550   -0.17694936
 C                  4.13072104    2.50881019    0.19425493
 O                  4.61274543    3.76362823   -0.29358128
 N                 -4.68224880    0.43324283    0.84981639
 H                 -4.76488626   -2.05430883   -0.05531595
 H                 -2.25100894    0.81203940   -0.77234377
 H                  0.32392293   -3.37836528   -0.70169950
 H                  2.02546616   -1.58020170   -0.31544778
 H                  0.21802566    1.74326595    0.40730462
 H                  0.67505793    0.98254268   -1.09784929
 H                  2.08006844    3.14518335    0.26415810
 H                  2.53710072    2.38446008   -1.24099580
 H                  4.69519998    1.71402234   -0.24685254
 H                  4.23816770    2.47474560    1.25830137
 H                  5.53919135    3.86238025   -0.06218120
 H                 -4.58013389    1.39630251    0.60064056
 H                 -4.68478358    0.34511860    1.84592266

 1 2 2.0 6 1.0 16 1.0
 2 3 1.0 17 1.0
 3 4 1.0 10 2.0
 4 5 2.0 7 1.0
 5 6 1.0 9 1.0
 6 18 1.0
 7 8 2.0 19 1.0
 8 9 1.0 20 1.0
 9 11 1.0
 10
 11 12 1.0 21 1.0 22 1.0
 12 13 1.0
 13 14 1.0 23 1.0 24 1.0
 14 15 1.0 25 1.0 26 1.0
 15 27 1.0
 16 28 1.0 29 1.0
 17
 18
 19
 20
 21
 22
 23
 24
 25
 26
 27
 28
 29

